proyfinal/src/viki/013/andrea/andrea-localstore/experimentInOfficeAgust.take6/worker_9/6b1c70a3-b9d0-419f-9e7e-513d261fd03b.als.cnf.out
Reading from standard input... Use '--help' for help.
============================[ Problem Statistics ]=============================
|                                                                             |
|  Number of variables:         87638                                         |
|  Number of clauses:          161767                                         |
|  Parse time:                   0.04 s                                       |
|                                                                             |
============================[ Search Statistics ]==============================
| Conflicts |          ORIGINAL         |          LEARNT          | Progress |
|           |    Vars  Clauses Literals |    Limit  Clauses Lit/Cl |          |
===============================================================================
|       100 |   63853   110450   275997 |    40498      100     26 | 27.140 % |
|       250 |   63853   110450   275997 |    44548      250     34 | 27.140 % |
|       475 |   53627    80082   201427 |    49002      430     40 | 38.809 % |
|       812 |   53627    80082   201427 |    53903      767     46 | 38.809 % |
|      1318 |   53627    80082   201427 |    59293     1273     51 | 38.809 % |
|      2077 |   53608    80007   201255 |    65222     2031     58 | 38.830 % |
|      3216 |   53529    79674   200493 |    71745     3162     59 | 38.920 % |
|      4924 |   53314    78899   198558 |    78919     4862     57 | 39.166 % |
|      7486 |   52830    77169   194357 |    86811     7335     66 | 39.718 % |
|     11330 |   52584    76095   191812 |    95492    10495     62 | 39.999 % |
|     17096 |   52482    75755   191011 |   105042    16243     63 | 40.115 % |
===============================================================================
restarts              : 88
conflicts             : 24000          (7033 /sec)
decisions             : 75077          (0.00 % random) (21999 /sec)
propagations          : 35089263       (10282017 /sec)
conflict literals     : 1432658        (47.65 % deleted)
Memory used           : 32.52 MB
CPU time              : 3.41268 s

INDETERMINATE
